NAME          ClpDefau
ROWS
 N  OBJROW
 L  R_256_0
 L  R_256_1
 L  R_256_2
 L  R_256_3
 L  R_256_4
 L  R_256_5
 L  R_256_6
 L  R_256_7
 L  R_256_8
 L  R_256_9
 L  R_256_10
 L  R_256_11
 L  R_256_12
 L  R_256_13
 L  R_256_14
 L  R_256_15
 L  R_256_16
 L  R_256_17
 L  R_256_18
 L  R_256_19
 L  R_256_20
 L  R_256_21
 L  R_256_22
 L  R_256_23
 L  R_256_24
 L  R_256_25
 L  R_256_26
 L  R_256_27
 L  R_256_28
 L  R_256_29
 L  R_256_30
 L  R_256_31
COLUMNS
    x_0       OBJROW     -1.           R_256_1   6.          
    x_0       R_256_2   9.             R_256_6   8.          
    x_0       R_256_15  7.          
    x_1       OBJROW     -2.           R_256_2   10.         
    x_1       R_256_17  6.             R_256_20  2.          
    x_1       R_256_21  1.             R_256_25  9.          
    x_1       R_256_26  5.          
    x_2       OBJROW     -2.           R_256_0   6.          
    x_2       R_256_3   2.             R_256_5   1.          
    x_2       R_256_7   3.             R_256_10  10.         
    x_2       R_256_11  4.             R_256_12  1.          
    x_2       R_256_13  10.            R_256_21  5.          
    x_2       R_256_29  8.          
    x_3       OBJROW     -6.           R_256_13  3.          
    x_3       R_256_14  4.             R_256_29  1.          
    x_3       R_256_31  9.          
    x_4       OBJROW     -3.           R_256_2   3.          
    x_4       R_256_4   1.             R_256_16  7.          
    x_4       R_256_22  2.             R_256_27  7.          
    x_4       R_256_28  5.             R_256_29  1.          
    x_4       R_256_31  8.          
    x_5       OBJROW     -5.           R_256_3   1.          
    x_5       R_256_6   8.             R_256_7   10.         
    x_5       R_256_10  6.             R_256_12  2.          
    x_5       R_256_13  10.            R_256_18  8.          
    x_6       OBJROW     -5.           R_256_9   6.          
    x_6       R_256_10  9.             R_256_11  7.          
    x_6       R_256_17  5.             R_256_22  5.          
    x_6       R_256_23  9.             R_256_30  3.          
    x_7       OBJROW     -10.          R_256_5   8.          
    x_7       R_256_11  5.             R_256_29  8.          
    x_8       OBJROW     -4.           R_256_1   2.          
    x_8       R_256_2   4.             R_256_7   9.          
    x_8       R_256_9   10.            R_256_13  7.          
    x_8       R_256_16  4.             R_256_23  10.         
    x_8       R_256_29  2.          
    x_9       OBJROW     -10.          R_256_7   8.          
    x_9       R_256_11  9.             R_256_13  1.          
    x_9       R_256_23  6.             R_256_30  4.          
    x_10      OBJROW     -1.           R_256_10  7.          
    x_10      R_256_19  8.             R_256_23  4.          
    x_10      R_256_27  3.          
    x_11      OBJROW     -10.          R_256_19  6.          
    x_11      R_256_21  3.             R_256_25  3.          
    x_12      OBJROW     -3.           R_256_5   6.          
    x_12      R_256_11  6.             R_256_20  3.          
    x_12      R_256_21  2.             R_256_24  9.          
    x_12      R_256_26  10.            R_256_29  8.          
    x_13      OBJROW     -7.           R_256_2   9.          
    x_13      R_256_10  2.             R_256_13  9.          
    x_13      R_256_15  5.             R_256_21  7.          
    x_13      R_256_23  8.             R_256_24  8.          
    x_13      R_256_28  9.             R_256_30  9.          
    x_14      OBJROW     -7.           R_256_4   8.          
    x_14      R_256_5   9.             R_256_6   2.          
    x_14      R_256_20  4.             R_256_21  4.          
    x_15      OBJROW     -9.           R_256_5   9.          
    x_15      R_256_9   3.             R_256_14  4.          
    x_15      R_256_17  4.             R_256_19  9.          
    x_15      R_256_22  8.             R_256_25  6.          
    x_16      OBJROW     -6.           R_256_3   5.          
    x_16      R_256_5   7.             R_256_20  8.          
    x_16      R_256_25  6.          
    x_17      OBJROW     -9.           R_256_5   1.          
    x_17      R_256_6   6.             R_256_7   9.          
    x_17      R_256_14  10.            R_256_17  7.          
    x_17      R_256_22  8.             R_256_25  5.          
    x_18      OBJROW     -8.           R_256_10  8.          
    x_18      R_256_18  9.             R_256_20  7.          
    x_18      R_256_23  9.             R_256_27  8.          
    x_18      R_256_30  8.             R_256_31  3.          
    x_19      OBJROW     -9.           R_256_2   3.          
    x_19      R_256_5   9.             R_256_8   3.          
    x_19      R_256_9   9.             R_256_17  6.          
    x_19      R_256_25  6.             R_256_31  2.          
    x_20      OBJROW     -5.           R_256_5   10.         
    x_20      R_256_6   10.            R_256_10  1.          
    x_20      R_256_12  4.             R_256_16  6.          
    x_20      R_256_17  10.            R_256_21  7.          
    x_20      R_256_22  5.             R_256_30  3.          
    x_21      OBJROW     -1.           R_256_9   10.         
    x_21      R_256_12  5.             R_256_27  5.          
    x_21      R_256_29  9.          
    x_22      OBJROW     -1.           R_256_8   5.          
    x_22      R_256_17  10.            R_256_20  7.          
    x_22      R_256_27  4.          
    x_23      OBJROW     -6.           R_256_12  8.          
    x_23      R_256_13  1.             R_256_18  6.          
    x_23      R_256_28  1.             R_256_29  7.          
    x_24      OBJROW     -8.           R_256_6   5.          
    x_24      R_256_12  4.             R_256_17  4.          
    x_24      R_256_27  8.          
    x_25      OBJROW     -6.           R_256_1   8.          
    x_25      R_256_4   4.             R_256_13  6.          
    x_25      R_256_18  8.             R_256_19  8.          
    x_26      OBJROW     -7.           R_256_0   3.          
    x_26      R_256_1   5.             R_256_3   1.          
    x_26      R_256_6   4.             R_256_11  4.          
    x_26      R_256_12  4.             R_256_13  2.          
    x_26      R_256_16  10.            R_256_17  3.          
    x_26      R_256_20  9.             R_256_24  2.          
    x_26      R_256_27  8.          
    x_27      OBJROW     -7.           R_256_0   3.          
    x_27      R_256_2   2.             R_256_6   5.          
    x_27      R_256_10  4.             R_256_15  3.          
    x_27      R_256_19  6.             R_256_25  1.          
    x_27      R_256_26  7.             R_256_27  4.          
    x_27      R_256_31  9.          
    x_28      OBJROW     -9.           R_256_2   10.         
    x_28      R_256_4   6.             R_256_5   4.          
    x_28      R_256_9   4.             R_256_10  2.          
    x_28      R_256_18  3.             R_256_21  3.          
    x_28      R_256_26  1.             R_256_29  1.          
    x_28      R_256_30  7.          
    x_29      OBJROW     -3.           R_256_1   5.          
    x_30      OBJROW     -9.           R_256_0   4.          
    x_30      R_256_7   2.             R_256_11  6.          
    x_30      R_256_15  9.             R_256_16  7.          
    x_30      R_256_30  10.         
    x_31      OBJROW     -3.           R_256_2   8.          
    x_31      R_256_3   6.             R_256_7   6.          
    x_31      R_256_8   1.             R_256_16  4.          
    x_31      R_256_17  8.             R_256_18  5.          
    x_31      R_256_19  3.             R_256_21  2.          
    x_31      R_256_24  6.          
RHS
    RHS       R_256_0   29.            R_256_1   14.         
    RHS       R_256_2   8.             R_256_3   12.         
    RHS       R_256_4   21.            R_256_5   9.          
    RHS       R_256_6   41.            R_256_7   41.         
    RHS       R_256_8   9.             R_256_9   17.         
    RHS       R_256_10  9.             R_256_11  26.         
    RHS       R_256_12  24.            R_256_13  15.         
    RHS       R_256_14  9.             R_256_15  9.          
    RHS       R_256_16  30.            R_256_17  25.         
    RHS       R_256_18  14.            R_256_19  32.         
    RHS       R_256_20  19.            R_256_21  34.         
    RHS       R_256_22  8.             R_256_23  23.         
    RHS       R_256_24  21.            R_256_25  18.         
    RHS       R_256_26  35.            R_256_27  42.         
    RHS       R_256_28  10.            R_256_29  25.         
    RHS       R_256_30  14.            R_256_31  23.         
BOUNDS
 UI BOUND     x_0       10.         
 UI BOUND     x_1       10.         
 UI BOUND     x_2       10.         
 UI BOUND     x_3       10.         
 UI BOUND     x_4       10.         
 UI BOUND     x_5       10.         
 UI BOUND     x_6       10.         
 UI BOUND     x_7       10.         
 UI BOUND     x_8       10.         
 UI BOUND     x_9       10.         
 UI BOUND     x_10      10.         
 UI BOUND     x_11      10.         
 UI BOUND     x_12      10.         
 UI BOUND     x_13      10.         
 UI BOUND     x_14      10.         
 UI BOUND     x_15      10.         
 UI BOUND     x_16      10.         
 UI BOUND     x_17      10.         
 UI BOUND     x_18      10.         
 UI BOUND     x_19      10.         
 UI BOUND     x_20      10.         
 UI BOUND     x_21      10.         
 UI BOUND     x_22      10.         
 UI BOUND     x_23      10.         
 UI BOUND     x_24      10.         
 UI BOUND     x_25      10.         
 UI BOUND     x_26      10.         
 UI BOUND     x_27      10.         
 UI BOUND     x_28      10.         
 UI BOUND     x_29      10.         
 UI BOUND     x_30      10.         
 UI BOUND     x_31      10.         
ENDATA
